10
68
0 1 4 7
0 2 82 6
0 3 46 2
0 4 81 2
0 5 72 0
0 6 3 6
0 7 61 4
0 8 78 1
0 9 81 5
1 2 49 4
1 3 44 8
1 4 28 1
1 5 55 0
1 6 95 7
1 7 53 2
1 8 90 0
1 9 61 5
2 3 22 8
2 4 90 0
2 5 13 7
2 6 6 2
2 7 90 5
2 8 62 7
2 9 34 7
3 4 89 6
3 5 70 6
3 6 93 6
3 7 51 1
3 8 59 6
3 9 95 2
4 5 50 2
4 6 39 7
4 7 40 4
4 8 73 1
4 9 61 3
5 6 69 7
5 7 89 7
5 8 82 0
5 9 4 7
6 7 23 4
6 8 73 8
6 9 53 7
7 8 82 4
7 9 83 5
8 9 54 3
